(set-option :smt.auto-config false)
(set-option :smt.mbqi false)
(set-option :sat.random_seed 488)
(set-option :smt.random_seed 599)
(set-option :nlsat.seed 611)
(set-option :memory_max_size 6000)
(declare-fun f (Int Int) Int)
(declare-sort RegExStr 0)
(declare-sort RMode 0)
(assert (! (forall ((x0py0 Int)(y0py0 Int)) (! (= (+ x0py0 y0py0) 3) :pattern ((f x0py0 y0py0)) )) :named A0))
(check-sat)
(get-info :reason-unknown)